30 3000
1 498
2 498
3 494
4 482
5 482
6 479
7 476
8 464
9 459
10 436
11 430
12 429
13 401
14 400
15 398
16 390
17 378
18 369
19 367
20 362
21 354
22 352
23 350
24 350
25 345
26 339
27 328
28 326
29 308
30 305
